; benchmark generated from python API
(set-info :status unknown)
(declare-fun x_months () Int)
(declare-fun x_beta () Int)
(assert
 (>= x_months (- 1202)))
(assert
 (<= x_months 1209))
(assert
 (>= x_beta 0))
(assert
 (let ((?x769 (div (- (+ x_months (+ (* 2000 12) 3)) 1) 12)))
 (let ((?x11 (+ (* 2000 12) 3)))
 (let ((?x3029 (+ x_months ?x11)))
 (let ((?x2411 (- ?x3029 (* ?x769 12))))
 (let ((?x873 (ite (or (= ?x2411 4) (= ?x2411 6) (= ?x2411 9) (= ?x2411 11)) 30 31)))
 (let (($x3825 (or (and (= (mod ?x769 4) 0) (and (distinct (mod ?x769 100) 0) true)) (= (mod ?x769 400) 0))))
 (< x_beta (ite (= ?x2411 2) (ite $x3825 29 28) ?x873)))))))))
(assert
 (let ((?x11 (+ (* 2000 12) 3)))
 (let ((?x3408 (- (+ (* 2023 12) 1) ?x11)))
 (let (($x369 (= x_months ?x3408)))
 (or (> x_months ?x3408) (and $x369 (<= 0 x_beta)))))))
(assert
 (let ((?x11 (+ (* 2000 12) 3)))
 (let ((?x3408 (- (+ (* 2023 12) 1) ?x11)))
 (let (($x369 (= x_months ?x3408)))
 (or (< x_months ?x3408) (and $x369 (>= 30 x_beta)))))))
(assert
 (let ((?x4080 (+ x_beta 1)))
(let ((?x1150 (div (- (+ (+ x_months 0) (+ (* 2000 12) 3)) 1) 12)))
(let ((?x11 (+ (* 2000 12) 3)))
(let ((?x3327 (+ (+ x_months 0) ?x11)))
(let ((?x2528 (- ?x3327 (* ?x1150 12))))
(let ((?x2233 (ite (or (= ?x2528 4) (= ?x2528 6) (= ?x2528 9) (= ?x2528 11)) 30 31)))
(let (($x330 (or (and (= (mod ?x1150 4) 0) (and (distinct (mod ?x1150 100) 0) true)) (= (mod ?x1150 400) 0))))
(let ((?x2364 (ite (= ?x2528 2) (ite $x330 29 28) ?x2233)))
(let (($x1038 (> 1 ?x4080)))
(let ((?x3854 (ite $x1038 1 (ite (> ?x4080 ?x2364) ?x2364 ?x4080))))
(let ((?x2913 (ite (> 1 ?x3854) 1 (ite (> ?x3854 ?x2364) ?x2364 ?x3854))))
(let ((?x1276 (ite (= 2 ?x2528) (ite $x330 31 31) (ite (= 1 ?x2528) (ite $x330 0 0) 0))))
(let ((?x1356 (ite (= 4 ?x2528) (ite $x330 91 90) (ite (= 3 ?x2528) (ite $x330 60 59) ?x1276))))
(let ((?x474 (ite (= 6 ?x2528) (ite $x330 152 151) (ite (= 5 ?x2528) (ite $x330 121 120) ?x1356))))
(let ((?x3173 (ite (= 8 ?x2528) (ite $x330 213 212) (ite (= 7 ?x2528) (ite $x330 182 181) ?x474))))
(let ((?x2242 (ite (= 10 ?x2528) (ite $x330 274 273) (ite (= 9 ?x2528) (ite $x330 244 243) ?x3173))))
(let ((?x2354 (ite (= 12 ?x2528) (ite $x330 335 334) (ite (= 11 ?x2528) (ite $x330 305 304) ?x2242))))
(let ((?x1105 (- (+ (* 365 (- ?x1150 1)) (div (- ?x1150 1) 4)) (div (- ?x1150 1) 100))))
(let ((?x1011 (- (+ (+ (+ ?x1105 (div (- ?x1150 1) 400)) ?x2354) (- ?x2913 1)) 730179)))
(let ((?x964 (+ (+ ?x1011 30) 730179)))
(let ((?x3126 (mod ?x964 146097)))
(let ((?x3127 (div ?x3126 36524)))
(let ((?x885 (ite (<= 4 ?x3127) 3 ?x3127)))
(let ((?x2757 (- ?x3126 (* ?x885 36524))))
(let ((?x2682 (mod ?x2757 1461)))
(let ((?x2028 (div ?x2682 365)))
(let ((?x2087 (ite (<= 4 ?x2028) 3 ?x2028)))
(let ((?x1287 (+ (+ (* (div ?x964 146097) 400) (* ?x885 100)) (* (div ?x2757 1461) 4))))
(let ((?x1063 (+ (+ ?x1287 ?x2087) 1)))
(let (($x3516 (or (and (= (mod ?x1063 4) 0) (and (distinct (mod ?x1063 100) 0) true)) (= (mod ?x1063 400) 0))))
(let ((?x992 (- ?x2682 (* ?x2087 365))))
(let ((?x2152 (ite $x3516 31 31)))
(let (($x1526 (>= ?x992 ?x2152)))
(let ((?x4101 (ite $x1526 (+ (- ?x992 ?x2152) 1) (+ (- ?x992 (ite $x3516 0 0)) 1))))
(let ((?x2946 (ite $x3516 60 59)))
(let (($x2716 (>= ?x992 ?x2946)))
(let ((?x1660 (ite $x3516 91 90)))
(let (($x2210 (>= ?x992 ?x1660)))
(let ((?x1991 (ite $x2210 (+ (- ?x992 ?x1660) 1) (ite $x2716 (+ (- ?x992 ?x2946) 1) ?x4101))))
(let ((?x1990 (ite $x3516 121 120)))
(let (($x1289 (>= ?x992 ?x1990)))
(let ((?x4115 (ite $x3516 152 151)))
(let (($x377 (>= ?x992 ?x4115)))
(let ((?x2246 (ite $x377 (+ (- ?x992 ?x4115) 1) (ite $x1289 (+ (- ?x992 ?x1990) 1) ?x1991))))
(let ((?x3171 (ite $x3516 182 181)))
(let (($x2748 (>= ?x992 ?x3171)))
(let ((?x2925 (ite $x3516 213 212)))
(let (($x1473 (>= ?x992 ?x2925)))
(let ((?x382 (ite $x1473 (+ (- ?x992 ?x2925) 1) (ite $x2748 (+ (- ?x992 ?x3171) 1) ?x2246))))
(let ((?x2022 (ite $x3516 244 243)))
(let (($x1054 (>= ?x992 ?x2022)))
(let ((?x4102 (ite $x3516 274 273)))
(let (($x3267 (>= ?x992 ?x4102)))
(let ((?x3298 (ite $x3267 (+ (- ?x992 ?x4102) 1) (ite $x1054 (+ (- ?x992 ?x2022) 1) ?x382))))
(let ((?x1284 (ite $x3516 305 304)))
(let (($x3220 (>= ?x992 ?x1284)))
(let ((?x2076 (ite $x3516 335 334)))
(let (($x523 (>= ?x992 ?x2076)))
(let ((?x4072 (ite $x523 (+ (- ?x992 ?x2076) 1) (ite $x3220 (+ (- ?x992 ?x1284) 1) ?x3298))))
(let (($x739 (= 30 0)))
(let ((?x2043 (+ (+ x_months 1) ?x11)))
(let ((?x1439 (- ?x2043 (* (div (- ?x2043 1) 12) 12))))
(let ((?x1217 (ite (or (= ?x1439 4) (= ?x1439 6) (= ?x1439 9) (= ?x1439 11)) 30 31)))
(let (($x3296 (and (= (mod (div (- ?x2043 1) 12) 4) 0) (and (distinct (mod (div (- ?x2043 1) 12) 100) 0) true))))
(let (($x3501 (or $x3296 (= (mod (div (- ?x2043 1) 12) 400) 0))))
(let ((?x773 (ite (= ?x1439 2) (ite $x3501 29 28) ?x1217)))
(let ((?x1278 (ite $x1038 1 (ite (> ?x4080 ?x773) ?x773 ?x4080))))
(let ((?x3527 (ite (> 1 ?x1278) 1 (ite (> ?x1278 ?x773) ?x773 ?x1278))))
(let ((?x509 (ite (= 2 ?x1439) (ite $x3501 31 31) (ite (= 1 ?x1439) (ite $x3501 0 0) 0))))
(let ((?x1641 (ite (= 4 ?x1439) (ite $x3501 91 90) (ite (= 3 ?x1439) (ite $x3501 60 59) ?x509))))
(let ((?x2640 (ite (= 6 ?x1439) (ite $x3501 152 151) (ite (= 5 ?x1439) (ite $x3501 121 120) ?x1641))))
(let ((?x418 (ite (= 8 ?x1439) (ite $x3501 213 212) (ite (= 7 ?x1439) (ite $x3501 182 181) ?x2640))))
(let ((?x2912 (ite (= 10 ?x1439) (ite $x3501 274 273) (ite (= 9 ?x1439) (ite $x3501 244 243) ?x418))))
(let ((?x1146 (ite (= 12 ?x1439) (ite $x3501 335 334) (ite (= 11 ?x1439) (ite $x3501 305 304) ?x2912))))
(let ((?x1543 (+ (* 365 (- (div (- ?x2043 1) 12) 1)) (div (- (div (- ?x2043 1) 12) 1) 4))))
(let ((?x2817 (+ (- ?x1543 (div (- (div (- ?x2043 1) 12) 1) 100)) (div (- (div (- ?x2043 1) 12) 1) 400))))
(let ((?x2804 (+ (+ (- (+ (+ ?x2817 ?x1146) (- ?x3527 1)) 730179) 0) 730179)))
(let ((?x3921 (mod ?x2804 146097)))
(let ((?x3204 (div ?x3921 36524)))
(let ((?x1549 (ite (<= 4 ?x3204) 3 ?x3204)))
(let ((?x1741 (- ?x3921 (* ?x1549 36524))))
(let ((?x2779 (mod ?x1741 1461)))
(let ((?x818 (div ?x2779 365)))
(let ((?x3764 (ite (<= 4 ?x818) 3 ?x818)))
(let ((?x898 (+ (+ (* (div ?x2804 146097) 400) (* ?x1549 100)) (* (div ?x1741 1461) 4))))
(let ((?x1325 (+ (+ ?x898 ?x3764) 1)))
(let (($x3397 (or (and (= (mod ?x1325 4) 0) (and (distinct (mod ?x1325 100) 0) true)) (= (mod ?x1325 400) 0))))
(let ((?x3158 (- ?x2779 (* ?x3764 365))))
(let ((?x3935 (ite $x3397 31 31)))
(let (($x2826 (>= ?x3158 ?x3935)))
(let ((?x1364 (ite $x2826 (+ (- ?x3158 ?x3935) 1) (+ (- ?x3158 (ite $x3397 0 0)) 1))))
(let ((?x2602 (ite $x3397 60 59)))
(let (($x617 (>= ?x3158 ?x2602)))
(let ((?x4079 (ite $x3397 91 90)))
(let (($x2573 (>= ?x3158 ?x4079)))
(let ((?x3094 (ite $x2573 (+ (- ?x3158 ?x4079) 1) (ite $x617 (+ (- ?x3158 ?x2602) 1) ?x1364))))
(let ((?x431 (ite $x3397 121 120)))
(let (($x3588 (>= ?x3158 ?x431)))
(let ((?x3342 (ite $x3397 152 151)))
(let (($x2611 (>= ?x3158 ?x3342)))
(let ((?x1693 (ite $x2611 (+ (- ?x3158 ?x3342) 1) (ite $x3588 (+ (- ?x3158 ?x431) 1) ?x3094))))
(let ((?x997 (ite $x3397 182 181)))
(let (($x3595 (>= ?x3158 ?x997)))
(let ((?x321 (ite $x3397 213 212)))
(let (($x3427 (>= ?x3158 ?x321)))
(let ((?x504 (ite $x3427 (+ (- ?x3158 ?x321) 1) (ite $x3595 (+ (- ?x3158 ?x997) 1) ?x1693))))
(let ((?x2424 (ite $x3397 244 243)))
(let (($x3898 (>= ?x3158 ?x2424)))
(let ((?x1326 (ite $x3397 274 273)))
(let (($x2831 (>= ?x3158 ?x1326)))
(let ((?x1609 (ite $x2831 (+ (- ?x3158 ?x1326) 1) (ite $x3898 (+ (- ?x3158 ?x2424) 1) ?x504))))
(let ((?x3743 (ite $x3397 305 304)))
(let (($x1878 (>= ?x3158 ?x3743)))
(let ((?x1189 (ite $x3397 335 334)))
(let (($x2336 (>= ?x3158 ?x1189)))
(let ((?x2311 (ite $x2336 (+ (- ?x3158 ?x1189) 1) (ite $x1878 (+ (- ?x3158 ?x3743) 1) ?x1609))))
(let (($x3530 (= 0 0)))
(let ((?x980 (ite $x1289 5 (ite $x2210 4 (ite $x2716 3 (ite $x1526 2 1))))))
(let ((?x1600 (ite $x1054 9 (ite $x1473 8 (ite $x2748 7 (ite $x377 6 ?x980))))))
(let ((?x3060 (ite $x523 12 (ite $x3220 11 (ite $x3267 10 ?x1600)))))
(let ((?x3900 (ite $x3588 5 (ite $x2573 4 (ite $x617 3 (ite $x2826 2 1))))))
(let ((?x3434 (ite $x3898 9 (ite $x3427 8 (ite $x3595 7 (ite $x2611 6 ?x3900))))))
(let ((?x2498 (+ (* (ite $x3530 (div (- ?x2043 1) 12) ?x1325) 12) (ite $x3530 ?x1439 (ite $x2336 12 (ite $x1878 11 (ite $x2831 10 ?x3434)))))))
(let (($x2323 (= (- ?x2498 ?x11) (- (+ (* (ite $x739 ?x1150 ?x1063) 12) (ite $x739 ?x2528 ?x3060)) ?x11))))
(let (($x2997 (and $x2323 (= (- (ite $x3530 ?x3527 ?x2311) 1) (- (ite $x739 ?x2913 ?x4072) 1)))))
(not $x2997)))))))))))))))))))))))))))))))))))))))))))))))))))))))))))))))))))))))))))))))))))))))))))))))))))))))))))))))))))))))))))))))
(check-sat)
